NAME : MM14_depots
COMMENT : Instance 14 in MD algorithm. Coordinates of depots and vhcl speeds given.
TYPE : TSP
DIMENSION : 10
EDGE_WEIGHT_TYPE : ATT
NODE_COORD_SECTION
201 50.9477 11.0443 1
202 52.9504 34.4700 1
203 37.2480 20.3357 1
204 13.5668 46.6052 1
205 55.9797 89.9157 1
206 5.2539 42.6109 1
207 8.3353 4.2426 1
208 97.9748 7.9603 1
209 45.6481 42.1063 1
210 36.1703 62.9647 1
EOF
